
Gurobi 9.5.0 (win64) logging started Mon Jun  6 13:16:50 2022

Set parameter LogFile to value "../results/logs/log_socfb-Syracuse56_46_250_2022_06_06_12_01.log"
Set parameter LazyConstraints to value 1
